n_res = 7;
rcap = [20, 24, 17, 20, 36, 87, 90];
rtype = [1, 1, 1, 1, 1, 2, 2];
n_tasks = 16;
modes = [ {1, 2, 3}, {4, 5, 6}, {7, 8, 9}, {10, 11, 12}, {13, 14, 15}, {16, 17, 18}, {19, 20, 21}, {22, 23, 24}, {25, 26, 27}, {28, 29, 30}, {31, 32, 33}, {34, 35, 36}, {37, 38, 39}, {40, 41, 42}, {43, 44, 45}, {46, 47, 48} ];
succ = [ {8, 9}, {4, 5, 6}, {4, 6, 7}, {10, 11}, {11, 12, 16}, {9, 10}, {13}, {13}, {14, 15, 16}, {12, 13}, {14}, {14, 15}, {15, 16}, {}, {}, {} ];
n_opt = 48;
dur = [1, 3, 4, 6, 9, 10, 4, 4, 5, 6, 7, 9, 4, 7, 9, 2, 3, 10, 4, 6, 10, 3, 7, 8, 3, 4, 5, 3, 6, 6, 2, 2, 5, 3, 5, 7, 1, 2, 4, 2, 7, 9, 2, 4, 10, 5, 7, 10];
rreq = [|  0,  0,  0,  0,  6,  0,  5,  8,  0,  0,  0,  0,  0,  6,  0,  8,  8,  0,  0,  6,  0,  0,  0,  3,  0,  5,  5,  0,  0, 10,  0,  7,  4,  0,  0,  3,  0, 10, 10,  8,  7,  6,  2,  0,  0,  0,  0,  6
        |  0,  0,  0,  0,  6,  5,  0,  4,  0,  0,  0,  0,  0,  0,  6,  7,  0,  1,  7,  4,  0,  0,  9,  5,  7,  5,  4,  2,  2,  2,  0,  6,  0,  8,  6,  6,  5,  0,  0,  4,  0,  0,  0,  6,  0, 10,  9,  9
        |  0,  5,  5,  0,  0,  0,  4,  4,  0,  7,  6,  0,  3,  0,  0,  0,  0,  0,  3,  0,  3,  0,  0,  0,  7,  0,  5,  8,  7,  8,  0,  0,  9,  0,  0,  5,  0,  3,  2,  0,  0,  0,  0,  9,  9,  0,  0,  0
        |  5,  0,  5,  7,  0,  4,  6,  7,  5,  0,  0,  3,  0,  7,  7,  6,  3,  2,  0,  0,  0,  6,  0,  6,  8,  7,  6,  0,  2,  0,  0,  0,  7,  5,  0,  0,  0,  2,  0, 10,  5,  0,  1,  0,  0,  7,  0,  0
        |  0,  7,  7, 10,  0,  6,  5,  0,  0,  0,  4,  0, 10,  8,  6,  0,  8,  0,  5,  0,  0,  0,  9,  0, 10,  9,  8,  0,  5,  0,  3,  7,  0,  4,  2,  0,  9,  4,  2,  7,  4,  4,  0,  0,  0,  0,  8,  5
        |  6,  4,  4,  4,  3,  3,  2,  2,  2,  9,  8,  7,  8,  6,  4,  6,  3,  1,  5,  5,  4,  6,  4,  3,  8,  4,  2,  7,  6,  7,  5,  4,  4,  9,  8,  8,  7,  7,  7,  9,  8,  4,  8,  7,  6,  6,  5,  4
        |  9,  4,  2,  2,  2,  1, 10,  8,  6,  5,  5,  5,  2,  2,  2,  8,  7,  7, 10,  9,  9,  6,  5,  5,  7,  6,  4,  9,  6,  7,  2,  2,  2,  9,  6,  4,  7,  6,  6,  9,  7,  6,  7,  7,  4,  5,  4,  4 |];
